c FILE /home/rafael/Documents/HappySet/MIHS/inputs/happygen/output/graph_d_regular_k7_p0.2_v100_20241127_084056.txt
c SOURCE This is a d-regular graph formed for the happy graph colouring problem.
c DESCRIPTION It was generated using the problem generator of Rhyd Lewis
c
c GRAPH STATS
c Seed                             = -494640208
c Number of Nodes                  = 100
c Number of colours k              = 7
c Number of pre-assignments        = 20
c Degree of all vertices           = 6
c Density                          = 0.0606061
c 
c The degrees of nodes 1 to 100, respectively, are as follows 
c [6, 6, 6, 6, 6, 6, 6, 6, 6, 6, 6, 6, 6, 6, 6, 6, 6, 6, 6, 6, 6, 6, 6, 6, 6, 6, 
c  6, 6, 6, 6, 6, 6, 6, 6, 6, 6, 6, 6, 6, 6, 6, 6, 6, 6, 6, 6, 6, 6, 6, 6, 6, 
c  6, 6, 6, 6, 6, 6, 6, 6, 6, 6, 6, 6, 6, 6, 6, 6, 6, 6, 6, 6, 6, 6, 6, 6, 6, 
c  6, 6, 6, 6, 6, 6, 6, 6, 6, 6, 6, 6, 6, 6, 6, 6, 6, 6, 6, 6, 6, 6, 6, 6] 
c  
p edge 100 300 7
e 1 39
e 1 49
e 1 57
e 1 79
e 1 90
e 1 94
e 2 27
e 2 28
e 2 70
e 2 72
e 2 75
e 2 76
e 3 38
e 3 41
e 3 49
e 3 59
e 3 66
e 3 99
e 4 10
e 4 37
e 4 38
e 4 67
e 4 74
e 4 84
e 5 7
e 5 32
e 5 36
e 5 57
e 5 89
e 5 97
e 6 14
e 6 32
e 6 60
e 6 61
e 6 70
e 6 75
e 7 14
e 7 30
e 7 33
e 7 38
e 7 85
e 8 25
e 8 28
e 8 48
e 8 51
e 8 72
e 8 91
e 9 12
e 9 51
e 9 68
e 9 81
e 9 86
e 9 100
e 10 14
e 10 23
e 10 29
e 10 42
e 10 64
e 11 18
e 11 36
e 11 47
e 11 52
e 11 53
e 11 82
e 12 18
e 12 24
e 12 26
e 12 63
e 12 76
e 13 15
e 13 17
e 13 73
e 13 80
e 13 88
e 13 95
e 14 59
e 14 95
e 14 98
e 15 26
e 15 68
e 15 78
e 15 85
e 15 89
e 16 22
e 16 34
e 16 57
e 16 74
e 16 87
e 16 97
e 17 26
e 17 29
e 17 45
e 17 66
e 17 92
e 18 26
e 18 29
e 18 31
e 18 41
e 19 28
e 19 35
e 19 42
e 19 59
e 19 73
e 19 97
e 20 31
e 20 41
e 20 65
e 20 72
e 20 87
e 20 93
e 21 40
e 21 45
e 21 50
e 21 68
e 21 75
e 21 78
e 22 24
e 22 25
e 22 34
e 22 69
e 22 79
e 23 43
e 23 50
e 23 62
e 23 72
e 23 87
e 24 31
e 24 39
e 24 63
e 24 65
e 25 41
e 25 44
e 25 55
e 25 81
e 26 34
e 26 91
e 27 32
e 27 53
e 27 76
e 27 85
e 27 95
e 28 44
e 28 65
e 28 73
e 29 58
e 29 74
e 29 94
e 30 41
e 30 53
e 30 63
e 30 76
e 30 91
e 31 67
e 31 81
e 31 88
e 32 38
e 32 44
e 32 83
e 33 44
e 33 51
e 33 54
e 33 78
e 33 94
e 34 37
e 34 46
e 34 97
e 35 40
e 35 46
e 35 62
e 35 94
e 35 97
e 36 45
e 36 54
e 36 58
e 36 64
e 37 39
e 37 46
e 37 92
e 37 98
e 38 61
e 38 76
e 39 49
e 39 87
e 39 100
e 40 41
e 40 59
e 40 70
e 40 95
e 42 52
e 42 54
e 42 67
e 42 88
e 43 63
e 43 77
e 43 79
e 43 96
e 43 98
e 44 58
e 44 67
e 45 60
e 45 78
e 45 79
e 46 52
e 46 53
e 46 73
e 47 61
e 47 68
e 47 71
e 47 80
e 47 95
e 48 58
e 48 73
e 48 82
e 48 85
e 48 87
e 49 65
e 49 71
e 49 93
e 50 51
e 50 53
e 50 74
e 50 81
e 51 82
e 51 100
e 52 54
e 52 56
e 52 65
e 53 67
e 54 55
e 54 89
e 55 59
e 55 60
e 55 77
e 55 84
e 56 80
e 56 85
e 56 88
e 56 93
e 56 94
e 57 64
e 57 83
e 57 92
e 58 84
e 58 90
e 59 71
e 60 62
e 60 70
e 60 84
e 61 90
e 61 93
e 61 94
e 62 81
e 62 86
e 62 93
e 63 64
e 63 90
e 64 71
e 64 89
e 65 77
e 66 71
e 66 77
e 66 82
e 66 85
e 67 72
e 68 69
e 68 100
e 69 71
e 69 84
e 69 91
e 69 95
e 70 83
e 70 100
e 72 96
e 73 75
e 74 77
e 74 99
e 75 88
e 75 89
e 76 83
e 77 96
e 78 86
e 78 89
e 79 82
e 79 97
e 80 82
e 80 83
e 80 92
e 81 93
e 83 98
e 84 91
e 86 90
e 86 91
e 86 99
e 87 99
e 88 96
e 90 98
e 92 99
e 92 100
e 96 98
e 96 99
n 1 3
n 3 2
n 5 7
n 24 1
n 25 6
n 29 6
n 32 7
n 35 7
n 52 1
n 54 1
n 58 6
n 64 4
n 65 1
n 67 3
n 73 5
n 75 5
n 78 4
n 79 3
n 86 4
n 95 3
